qe/outputs/qe/qe_queries_cbrdelay_obs/T=5,eliminate=[I_0,I_1,I_2,I_3,I_4,L_2,L_3,L_4].smt2
; benchmark generated from python API
(set-info :status unknown)
(declare-fun S_3 () Real)
(declare-fun A_2 () Real)
(declare-fun L_1 () Real)
(declare-fun C () Real)
(declare-fun B () Real)
(declare-fun A_1 () Real)
(declare-fun S_1 () Real)
(declare-fun S_2 () Real)
(declare-fun S_0 () Real)
(declare-fun S_4 () Real)
(declare-fun L_0 () Real)
(declare-fun A_0 () Real)
(declare-fun A_3 () Real)
(declare-fun A_4 () Real)
(assert
 (let (($x303 (>= (+ L_1 (* (- 1.0) A_1) (* (- 1.0) B) S_3 (* (- 1.0) C)) 0.0)))
 (let (($x307 (>= (+ (* (- 1.0) B) S_3 (* (- 1.0) C) (* (- 1.0) S_2)) 0.0)))
 (let (($x357 (>= (+ (* (- 1.0) B) S_3 (* (- 2.0) C) (* (- 1.0) S_1)) 0.0)))
 (let (($x34 (>= L_0 0.0)))
 (let (($x559 (>= C 5.0)))
 (let (($x478 (>= B 5.0)))
 (let (($x9423 (<= 0.0 (+ L_1 (* (- 1.0) A_1) C S_0))))
 (let (($x9347 (not $x9423)))
 (let ((?x427 (* (- 1.0) S_4)))
 (let ((?x416 (* (- 1.0) A_2)))
 (let ((?x513 (* (- 1.0) L_1)))
 (let (($x2889 (<= (+ A_2 (* (- 1.0) A_1) (* (- 1.0) C) (* (- 1.0) B)) 0.0)))
 (let (($x2873 (<= (+ ?x513 A_1 (* 2.0 C) ?x427) 0.0)))
 (let (($x10217 (or $x2873 $x2889 (<= (+ ?x513 A_1 B C A_3 ?x416 ?x427) 0.0) $x9347)))
 (let (($x9761 (not (<= 0.0 (+ (* (- 1.0) B) S_3 C ?x427)))))
 (let ((?x412 (* (- 1.0) A_3)))
 (let ((?x900 (* (- 2.0) C)))
 (let ((?x530 (* (- 1.0) B)))
 (let ((?x420 (* (- 1.0) A_1)))
 (let (($x4294 (<= (+ ?x530 (* (- 3.0) C) ?x412 A_2 (* (- 1.0) A_0) S_4 L_0) 0.0)))
 (let (($x4312 (<= (+ ?x530 (* (- 4.0) C) ?x412 A_2 S_4 (* (- 1.0) S_0)) 0.0)))
 (let (($x6763 (<= (+ B (* 2.0 C) A_3 ?x416 ?x427 S_0) 0.0)))
 (let (($x1461 (<= (+ B (* (- 1.0) C) A_3 ?x416) 0.0)))
 (let (($x1475 (not $x1461)))
 (let (($x917 (<= (+ ?x513 A_3 ?x427) 0.0)))
 (let (($x4339 (<= (+ ?x530 (* (- 3.0) C) ?x412 A_2 S_4 (* (- 1.0) S_1)) 0.0)))
 (let (($x4533 (<= (+ ?x530 ?x900 (* (- 1.0) A_4) A_2 S_4 (* (- 1.0) S_1)) 0.0)))
 (let (($x4712 (<= (+ L_1 ?x420 ?x530 (* (- 1.0) C) (* (- 1.0) A_4) A_2 S_4) 0.0)))
 (let ((?x938 (* (- 1.0) S_0)))
 (let ((?x408 (* (- 1.0) A_4)))
 (let ((?x1240 (* (- 3.0) C)))
 (let (($x4222 (<= (+ ?x530 (* (- 1.0) C) ?x408 A_2 S_4 (* (- 1.0) S_2)) 0.0)))
 (let (($x3895 (<= (+ ?x530 (* (- 1.0) S_3) (* (- 1.0) C) ?x412 A_2 S_4) 0.0)))
 (let (($x7200 (or $x917 (<= (+ C ?x427 S_2) 0.0) (<= (+ B A_3 ?x416 ?x427 S_2) 0.0))))
 (let (($x6583 (or $x917 (<= (+ (* 2.0 C) ?x427 S_1) 0.0) (<= (+ B C A_3 ?x416 ?x427 S_1) 0.0))))
 (let (($x5659 (<= (+ ?x530 (* (- 1.0) S_3) (* (- 1.0) C) ?x408 A_3 S_4) 0.0)))
 (let (($x1314 (<= (+ ?x530 (* 2.0 C) A_1 ?x427 ?x513) 0.0)))
 (let (($x949 (<= (+ A_2 ?x420 (* (- 1.0) C)) 0.0)))
 (let (($x51 (= L_1 L_0)))
 (let (($x16812 (or $x51 (<= (+ (* (- 1.0) C) ?x408 A_2 ?x420 S_4 L_1) 0.0))))
 (let (($x343 (<= 0.0 (+ S_3 (* (- 1.0) C) ?x420 L_1))))
 (let (($x961 (<= (+ ?x513 A_1 (* (- 1.0) A_0) (* (- 1.0) C) ?x530 L_0) 0.0)))
 (let (($x108 (>= S_1 S_0)))
 (let (($x111 (>= S_2 S_1)))
 (let (($x114 (>= S_3 S_2)))
 (let (($x117 (>= S_4 S_3)))
 (let (($x119 (>= A_1 A_0)))
 (let (($x120 (>= A_2 A_1)))
 (let (($x121 (>= A_3 A_2)))
 (let (($x122 (>= A_4 A_3)))
 (and $x122 $x121 $x120 $x119 $x117 $x114 $x111 $x108 (or $x51 (not (<= 0.0 (+ ?x513 L_0)))) (<= (+ ?x513 A_1 (* (- 1.0) S_2) ?x530) 0.0) (<= (+ ?x513 (* (- 1.0) S_3) A_1 C ?x530) 0.0) $x961 (<= (+ ?x513 A_1 (* (- 1.0) C) (* (- 1.0) S_1) ?x530) 0.0) (<= (+ ?x513 A_1 ?x900 ?x938 ?x530) 0.0) (or $x51 (<= (+ L_1 ?x420 S_1 B) 0.0)) (or $x51 (<= (+ L_1 ?x420 (* (- 1.0) C) S_2 B) 0.0)) (or $x51 (not $x343)) (or $x51 (<= (+ L_1 ?x420 C S_0 B) 0.0)) (or $x51 (<= (+ B ?x1240 ?x420 S_4 L_1) 0.0)) (or $x51 (<= (+ B S_3 ?x900 ?x420 L_1) 0.0)) (or (<= 0.0 (+ C ?x412 A_2)) $x1314) (or $x917 (not $x949) $x1314) (or $x343 (<= (+ (* (- 1.0) S_3) (* 2.0 C) S_0) 0.0)) (or $x51 (<= (+ ?x900 ?x408 A_3 ?x420 S_4 L_1) 0.0)) (or $x9423 (<= (+ C (* (- 1.0) S_2) S_0) 0.0)) (or (<= (+ ?x513 A_1 (* (- 1.0) S_2)) 0.0) $x9347) (<= (+ S_3 (* (- 4.0) C) ?x938) 0.0) (or $x51 (<= (+ ?x900 ?x412 A_2 ?x420 S_4 L_1) 0.0)) $x16812 (or $x949 $x1314 (<= (+ C A_3 ?x416 A_1 ?x427 ?x513) 0.0)) (<= (+ L_1 ?x408 S_4) 0.0) (<= (+ ?x530 ?x900 ?x408 A_2 (* (- 1.0) A_0) S_4 L_0) 0.0) (<= (+ L_1 ?x412 (* (- 1.0) C) S_4) 0.0) (not (<= 0.0 (+ ?x530 S_3 ?x900 (* (- 1.0) A_0) L_0))) (not (<= 0.0 (+ ?x530 S_3 ?x1240 ?x938))) (<= (+ S_3 (* (- 1.0) A_0) ?x1240 L_0) 0.0) (<= (+ L_1 S_3 ?x420 ?x900) 0.0) $x5659 (<= (+ ?x530 ?x1240 ?x408 A_3 (* (- 1.0) A_0) S_4 L_0) 0.0) (<= (+ ?x530 (* (- 4.0) C) ?x408 A_3 S_4 ?x938) 0.0) (<= (+ ?x530 (* (- 1.0) S_3) ?x408 A_2 S_4) 0.0) (<= (+ ?x530 ?x900 ?x408 A_3 S_4 (* (- 1.0) S_2)) 0.0) (<= (+ ?x530 ?x1240 ?x408 A_3 S_4 (* (- 1.0) S_1)) 0.0) (<= (+ L_1 ?x408 A_3 ?x420 ?x530 ?x900 S_4) 0.0) (or $x1461 $x9761) (or $x917 $x1461 (<= (+ (* 3.0 C) ?x427 S_0) 0.0) $x2873) $x6583 $x7200 $x3895 (<= (+ ?x530 ?x900 ?x412 A_2 S_4 (* (- 1.0) S_2)) 0.0) $x4222 (<= (+ ?x530 ?x1240 ?x408 A_2 S_4 ?x938) 0.0) $x4712 $x4533 $x4339 (or $x1475 $x9423 $x2889 $x6763) (or $x917 $x1475 (not $x2889) $x6763) $x4312 $x4294 (<= (+ L_1 ?x420 ?x530 ?x900 ?x412 A_2 S_4) 0.0) (or $x9761 (not (<= 0.0 (+ S_3 A_3 ?x416 ?x427)))) $x10217 $x478 $x559 $x34 (<= (+ (* (- 1.0) S_3) ?x900 S_4) 0.0) (<= (+ ?x1240 S_4 (* (- 1.0) S_2)) 0.0) (<= (+ (* (- 1.0) A_0) S_0 L_0) 0.0) (<= (+ (* (- 1.0) A_0) (* (- 1.0) C) S_1 L_0) 0.0) (<= (+ (* (- 1.0) A_0) ?x900 S_2 L_0) 0.0) (<= (+ (* (- 1.0) A_0) (* (- 4.0) C) S_4 L_0) 0.0) (<= (+ ?x900 S_2 (* (- 1.0) S_1)) 0.0) (<= (+ ?x1240 S_2 ?x938) 0.0) (<= (+ (* (- 5.0) C) S_4 ?x938) 0.0) (<= (+ L_1 ?x420 (* (- 1.0) C) S_2) 0.0) (<= (+ L_1 ?x420 ?x1240 S_4) 0.0) (<= (+ (* (- 4.0) C) S_4 (* (- 1.0) S_1)) 0.0) (<= (+ L_1 ?x420 S_1) 0.0) (<= (+ ?x900 S_1 ?x938) 0.0) (<= (+ (* (- 1.0) S_3) C S_1) 0.0) (<= (+ S_3 ?x900 (* (- 1.0) S_2)) 0.0) (not $x357) (not $x307) (<= (+ S_3 ?x1240 (* (- 1.0) S_1)) 0.0) (not $x303) (not (>= (+ L_1 ?x416 S_3) 0.0))))))))))))))))))))))))))))))))))))))))))))))))))))))
(check-sat)
